c nIsolatedPIs 0
c maxPI 32
p cnf 231 598
c gate 33 2 -18 0
2 -33 0
-18 -33 0
-2 18 33 0
c gate 34 -1 17 0
-1 -34 0
17 -34 0
1 -17 34 0
c gate 35 33 34 0
33 -35 0
34 -35 0
-33 -34 35 0
c gate 36 -14 -30 0
-14 -36 0
-30 -36 0
14 30 36 0
c gate 37 14 30 0
14 -37 0
30 -37 0
-14 -30 37 0
c gate 38 -36 -37 0
-36 -38 0
-37 -38 0
36 37 38 0
c gate 39 12 28 0
12 -39 0
28 -39 0
-12 -28 39 0
c gate 40 13 29 0
13 -40 0
29 -40 0
-13 -29 40 0
c gate 41 -39 -40 0
-39 -41 0
-40 -41 0
39 40 41 0
c gate 42 38 -41 0
38 -42 0
-41 -42 0
-38 41 42 0
c gate 43 -38 41 0
-38 -43 0
41 -43 0
38 -41 43 0
c gate 44 -42 -43 0
-42 -44 0
-43 -44 0
42 43 44 0
c gate 45 -13 -29 0
-13 -45 0
-29 -45 0
13 29 45 0
c gate 46 -12 -28 0
-12 -46 0
-28 -46 0
12 28 46 0
c gate 47 -39 -46 0
-39 -47 0
-46 -47 0
39 46 47 0
c gate 48 -11 -27 0
-11 -48 0
-27 -48 0
11 27 48 0
c gate 49 -10 -26 0
-10 -49 0
-26 -49 0
10 26 49 0
c gate 50 9 25 0
9 -50 0
25 -50 0
-9 -25 50 0
c gate 51 -6 -22 0
-6 -51 0
-22 -51 0
6 22 51 0
c gate 52 5 21 0
5 -52 0
21 -52 0
-5 -21 52 0
c gate 53 -3 -19 0
-3 -53 0
-19 -53 0
3 19 53 0
c gate 54 2 18 0
2 -54 0
18 -54 0
-2 -18 54 0
c gate 55 -2 -18 0
-2 -55 0
-18 -55 0
2 18 55 0
c gate 56 1 17 0
1 -56 0
17 -56 0
-1 -17 56 0
c gate 57 -55 56 0
-55 -57 0
56 -57 0
55 -56 57 0
c gate 58 -54 -57 0
-54 -58 0
-57 -58 0
54 57 58 0
c gate 59 -53 -58 0
-53 -59 0
-58 -59 0
53 58 59 0
c gate 60 4 20 0
4 -60 0
20 -60 0
-4 -20 60 0
c gate 61 3 19 0
3 -61 0
19 -61 0
-3 -19 61 0
c gate 62 -60 -61 0
-60 -62 0
-61 -62 0
60 61 62 0
c gate 63 -59 62 0
-59 -63 0
62 -63 0
59 -62 63 0
c gate 64 -4 -20 0
-4 -64 0
-20 -64 0
4 20 64 0
c gate 65 -5 -21 0
-5 -65 0
-21 -65 0
5 21 65 0
c gate 66 -64 -65 0
-64 -66 0
-65 -66 0
64 65 66 0
c gate 67 -63 66 0
-63 -67 0
66 -67 0
63 -66 67 0
c gate 68 -52 -67 0
-52 -68 0
-67 -68 0
52 67 68 0
c gate 69 -51 -68 0
-51 -69 0
-68 -69 0
51 68 69 0
c gate 70 6 22 0
6 -70 0
22 -70 0
-6 -22 70 0
c gate 71 7 -23 0
7 -71 0
-23 -71 0
-7 23 71 0
c gate 72 -7 23 0
-7 -72 0
23 -72 0
7 -23 72 0
c gate 73 -71 -72 0
-71 -73 0
-72 -73 0
71 72 73 0
c gate 74 -70 -73 0
-70 -74 0
-73 -74 0
70 73 74 0
c gate 75 -69 74 0
-69 -75 0
74 -75 0
69 -74 75 0
c gate 76 8 24 0
8 -76 0
24 -76 0
-8 -24 76 0
c gate 77 -8 -24 0
-8 -77 0
-24 -77 0
8 24 77 0
c gate 78 -76 -77 0
-76 -78 0
-77 -78 0
76 77 78 0
c gate 79 75 78 0
75 -79 0
78 -79 0
-75 -78 79 0
c gate 80 -7 -23 0
-7 -80 0
-23 -80 0
7 23 80 0
c gate 81 -76 80 0
-76 -81 0
80 -81 0
76 -80 81 0
c gate 82 -9 -25 0
-9 -82 0
-25 -82 0
9 25 82 0
c gate 83 -77 -82 0
-77 -83 0
-82 -83 0
77 82 83 0
c gate 84 -81 83 0
-81 -84 0
83 -84 0
81 -83 84 0
c gate 85 -79 84 0
-79 -85 0
84 -85 0
79 -84 85 0
c gate 86 -50 -85 0
-50 -86 0
-85 -86 0
50 85 86 0
c gate 87 -49 -86 0
-49 -87 0
-86 -87 0
49 86 87 0
c gate 88 11 27 0
11 -88 0
27 -88 0
-11 -27 88 0
c gate 89 10 26 0
10 -89 0
26 -89 0
-10 -26 89 0
c gate 90 -88 -89 0
-88 -90 0
-89 -90 0
88 89 90 0
c gate 91 -87 90 0
-87 -91 0
90 -91 0
87 -90 91 0
c gate 92 -48 -91 0
-48 -92 0
-91 -92 0
48 91 92 0
c gate 93 47 92 0
47 -93 0
92 -93 0
-47 -92 93 0
c gate 94 41 -93 0
41 -94 0
-93 -94 0
-41 93 94 0
c gate 95 -45 -94 0
-45 -95 0
-94 -95 0
45 94 95 0
c gate 96 38 -95 0
38 -96 0
-95 -96 0
-38 95 96 0
c gate 97 -38 95 0
-38 -97 0
95 -97 0
38 -95 97 0
c gate 98 -96 -97 0
-96 -98 0
-97 -98 0
96 97 98 0
c gate 99 44 98 0
44 -99 0
98 -99 0
-44 -98 99 0
c gate 100 -44 -98 0
-44 -100 0
-98 -100 0
44 98 100 0
c gate 101 -99 -100 0
-99 -101 0
-100 -101 0
99 100 101 0
c gate 102 -50 -89 0
-50 -102 0
-89 -102 0
50 89 102 0
c gate 103 -84 102 0
-84 -103 0
102 -103 0
84 -102 103 0
c gate 104 -48 -49 0
-48 -104 0
-49 -104 0
48 49 104 0
c gate 105 -103 104 0
-103 -105 0
104 -105 0
103 -104 105 0
c gate 106 -88 -105 0
-88 -106 0
-105 -106 0
88 105 106 0
c gate 107 -47 92 0
-47 -107 0
92 -107 0
47 -92 107 0
c gate 108 106 -107 0
106 -108 0
-107 -108 0
-106 107 108 0
c gate 109 47 -92 0
47 -109 0
-92 -109 0
-47 92 109 0
c gate 110 -106 -109 0
-106 -110 0
-109 -110 0
106 109 110 0
c gate 111 -108 -110 0
-108 -111 0
-110 -111 0
108 110 111 0
c gate 112 101 111 0
101 -112 0
111 -112 0
-101 -111 112 0
c gate 113 -15 -31 0
-15 -113 0
-31 -113 0
15 31 113 0
c gate 114 15 31 0
15 -114 0
31 -114 0
-15 -31 114 0
c gate 115 -113 -114 0
-113 -115 0
-114 -115 0
113 114 115 0
c gate 116 -36 -96 0
-36 -116 0
-96 -116 0
36 96 116 0
c gate 117 115 -116 0
115 -117 0
-116 -117 0
-115 116 117 0
c gate 118 -113 -117 0
-113 -118 0
-117 -118 0
113 117 118 0
c gate 119 16 -32 0
16 -119 0
-32 -119 0
-16 32 119 0
c gate 120 -16 32 0
-16 -120 0
32 -120 0
16 -32 120 0
c gate 121 -119 -120 0
-119 -121 0
-120 -121 0
119 120 121 0
c gate 122 -118 -121 0
-118 -122 0
-121 -122 0
118 121 122 0
c gate 123 118 121 0
118 -123 0
121 -123 0
-118 -121 123 0
c gate 124 -122 -123 0
-122 -124 0
-123 -124 0
122 123 124 0
c gate 125 -37 -42 0
-37 -125 0
-42 -125 0
37 42 125 0
c gate 126 115 125 0
115 -126 0
125 -126 0
-115 -125 126 0
c gate 127 -113 -126 0
-113 -127 0
-126 -127 0
113 126 127 0
c gate 128 -121 -127 0
-121 -128 0
-127 -128 0
121 127 128 0
c gate 129 121 127 0
121 -129 0
127 -129 0
-121 -127 129 0
c gate 130 -128 -129 0
-128 -130 0
-129 -130 0
128 129 130 0
c gate 131 -124 130 0
-124 -131 0
130 -131 0
124 -130 131 0
c gate 132 124 -130 0
124 -132 0
-130 -132 0
-124 130 132 0
c gate 133 -115 -125 0
-115 -133 0
-125 -133 0
115 125 133 0
c gate 134 -126 -133 0
-126 -134 0
-133 -134 0
126 133 134 0
c gate 135 -115 116 0
-115 -135 0
116 -135 0
115 -116 135 0
c gate 136 -117 -135 0
-117 -136 0
-135 -136 0
117 135 136 0
c gate 137 134 -136 0
134 -137 0
-136 -137 0
-134 136 137 0
c gate 138 -134 136 0
-134 -138 0
136 -138 0
134 -136 138 0
c gate 139 -40 -45 0
-40 -139 0
-45 -139 0
40 45 139 0
c gate 140 93 -139 0
93 -140 0
-139 -140 0
-93 139 140 0
c gate 141 -100 -140 0
-100 -141 0
-140 -141 0
100 140 141 0
c gate 142 -138 -141 0
-138 -142 0
-141 -142 0
138 141 142 0
c gate 143 -137 -142 0
-137 -143 0
-142 -143 0
137 142 143 0
c gate 144 -132 -143 0
-132 -144 0
-143 -144 0
132 143 144 0
c gate 145 -131 -144 0
-131 -145 0
-144 -145 0
131 144 145 0
c gate 146 -112 145 0
-112 -146 0
145 -146 0
112 -145 146 0
c gate 147 -79 -93 0
-79 -147 0
-93 -147 0
79 93 147 0
c gate 148 101 147 0
101 -148 0
147 -148 0
-101 -147 148 0
c gate 149 -146 -148 0
-146 -149 0
-148 -149 0
146 148 149 0
c gate 150 10 -26 0
10 -150 0
-26 -150 0
-10 26 150 0
c gate 151 8 -24 0
8 -151 0
-24 -151 0
-8 24 151 0
c gate 152 -50 -82 0
-50 -152 0
-82 -152 0
50 82 152 0
c gate 153 -151 -152 0
-151 -153 0
-152 -153 0
151 152 153 0
c gate 154 -9 25 0
-9 -154 0
25 -154 0
9 -25 154 0
c gate 155 -10 26 0
-10 -155 0
26 -155 0
10 -26 155 0
c gate 156 -154 -155 0
-154 -156 0
-155 -156 0
154 155 156 0
c gate 157 -153 156 0
-153 -157 0
156 -157 0
153 -156 157 0
c gate 158 -150 -157 0
-150 -158 0
-157 -158 0
150 157 158 0
c gate 159 -4 20 0
-4 -159 0
20 -159 0
4 -20 159 0
c gate 160 -3 19 0
-3 -160 0
19 -160 0
3 -19 160 0
c gate 161 -2 18 0
-2 -161 0
18 -161 0
2 -18 161 0
c gate 162 -34 -161 0
-34 -162 0
-161 -162 0
34 161 162 0
c gate 163 3 -19 0
3 -163 0
-19 -163 0
-3 19 163 0
c gate 164 -162 -163 0
-162 -164 0
-163 -164 0
162 163 164 0
c gate 165 -33 164 0
-33 -165 0
164 -165 0
33 -164 165 0
c gate 166 -160 -165 0
-160 -166 0
-165 -166 0
160 165 166 0
c gate 167 -159 166 0
-159 -167 0
166 -167 0
159 -166 167 0
c gate 168 4 -20 0
4 -168 0
-20 -168 0
-4 20 168 0
c gate 169 -52 -65 0
-52 -169 0
-65 -169 0
52 65 169 0
c gate 170 -168 -169 0
-168 -170 0
-169 -170 0
168 169 170 0
c gate 171 -167 170 0
-167 -171 0
170 -171 0
167 -170 171 0
c gate 172 -51 -70 0
-51 -172 0
-70 -172 0
51 70 172 0
c gate 173 -5 21 0
-5 -173 0
21 -173 0
5 -21 173 0
c gate 174 -172 -173 0
-172 -174 0
-173 -174 0
172 173 174 0
c gate 175 -171 174 0
-171 -175 0
174 -175 0
171 -174 175 0
c gate 176 -72 175 0
-72 -176 0
175 -176 0
72 -175 176 0
c gate 177 6 -22 0
6 -177 0
-22 -177 0
-6 22 177 0
c gate 178 -72 177 0
-72 -178 0
177 -178 0
72 -177 178 0
c gate 179 -71 -178 0
-71 -179 0
-178 -179 0
71 178 179 0
c gate 180 -176 179 0
-176 -180 0
179 -180 0
176 -179 180 0
c gate 181 -78 -180 0
-78 -181 0
-180 -181 0
78 180 181 0
c gate 182 156 181 0
156 -182 0
181 -182 0
-156 -181 182 0
c gate 183 158 -182 0
158 -183 0
-182 -183 0
-158 182 183 0
c gate 184 -48 -88 0
-48 -184 0
-88 -184 0
48 88 184 0
c gate 185 183 -184 0
183 -185 0
-184 -185 0
-183 184 185 0
c gate 186 164 166 0
164 -186 0
166 -186 0
-164 -166 186 0
c gate 187 -159 170 0
-159 -187 0
170 -187 0
159 -170 187 0
c gate 188 186 187 0
186 -188 0
187 -188 0
-186 -187 188 0
c gate 189 -175 -188 0
-175 -189 0
-188 -189 0
175 188 189 0
c gate 190 73 -172 0
73 -190 0
-172 -190 0
-73 172 190 0
c gate 191 -189 -190 0
-189 -191 0
-190 -191 0
189 190 191 0
c gate 192 186 -187 0
186 -192 0
-187 -192 0
-186 187 192 0
c gate 193 122 127 0
122 -193 0
127 -193 0
-122 -127 193 0
c gate 194 -35 -193 0
-35 -194 0
-193 -194 0
35 193 194 0
c gate 195 -186 -194 0
-186 -195 0
-194 -195 0
186 194 195 0
c gate 196 118 128 0
118 -196 0
128 -196 0
-118 -128 196 0
c gate 197 194 -196 0
194 -197 0
-196 -197 0
-194 196 197 0
c gate 198 149 197 0
149 -198 0
197 -198 0
-149 -197 198 0
c gate 199 -195 -198 0
-195 -199 0
-198 -199 0
195 198 199 0
c gate 200 -192 199 0
-192 -200 0
199 -200 0
192 -199 200 0
c gate 201 189 -200 0
189 -201 0
-200 -201 0
-189 200 201 0
c gate 202 -191 -201 0
-191 -202 0
-201 -202 0
191 201 202 0
c gate 203 78 179 0
78 -203 0
179 -203 0
-78 -179 203 0
c gate 204 -180 203 0
-180 -204 0
203 -204 0
180 -203 204 0
c gate 205 202 -204 0
202 -205 0
-204 -205 0
-202 204 205 0
c gate 206 -181 -205 0
-181 -206 0
-205 -206 0
181 205 206 0
c gate 207 -150 -155 0
-150 -207 0
-155 -207 0
150 155 207 0
c gate 208 -152 207 0
-152 -208 0
207 -208 0
152 -207 208 0
c gate 209 181 -208 0
181 -209 0
-208 -209 0
-181 208 209 0
c gate 210 -206 -209 0
-206 -210 0
-209 -210 0
206 209 210 0
c gate 211 -183 184 0
-183 -211 0
184 -211 0
183 -184 211 0
c gate 212 -185 -211 0
-185 -212 0
-211 -212 0
185 211 212 0
c gate 213 158 -212 0
158 -213 0
-212 -213 0
-158 212 213 0
c gate 214 210 -213 0
210 -214 0
-213 -214 0
-210 213 214 0
c gate 215 -185 -214 0
-185 -215 0
-214 -215 0
185 214 215 0
c gate 216 -38 -115 0
-38 -216 0
-115 -216 0
38 115 216 0
c gate 217 -47 121 0
-47 -217 0
121 -217 0
47 -121 217 0
c gate 218 -139 217 0
-139 -218 0
217 -218 0
139 -217 218 0
c gate 219 216 218 0
216 -219 0
218 -219 0
-216 -218 219 0
c gate 220 185 219 0
185 -220 0
219 -220 0
-185 -219 220 0
c gate 221 -215 -220 0
-215 -221 0
-220 -221 0
215 220 221 0
c gate 222 -149 221 0
-149 -222 0
221 -222 0
149 -221 222 0
c gate 223 75 -111 0
75 -223 0
-111 -223 0
-75 111 223 0
c gate 224 -93 -223 0
-93 -224 0
-223 -224 0
93 223 224 0
c gate 225 101 224 0
101 -225 0
224 -225 0
-101 -224 225 0
c gate 226 145 -225 0
145 -226 0
-225 -226 0
-145 225 226 0
c gate 227 -221 -226 0
-221 -227 0
-226 -227 0
221 226 227 0
c gate 228 -222 -227 0
-222 -228 0
-227 -228 0
222 227 228 0
c gate 229 -35 228 0
-35 -229 0
228 -229 0
35 -228 229 0
c gate 230 35 -228 0
35 -230 0
-228 -230 0
-35 228 230 0
c gate 231 -229 -230 0
-229 -231 0
-230 -231 0
229 230 231 0
c PO
-231 0
